3000 3000 68
365 185 128
378 200 98
410 165 126
425 148 140
425 296 70
439 116 150
464 1006 12
520 205 70
520 350 40
540 530 25
549 1413 10
549 1882 5
553 496 30
555 755 15
555 496 30
555 659 20
567 473 30
572 592 25
572 975 15
572 1175 10
572 1575 5
572 1390 10
572 1490 10
572 1590 5
572 1690 5
572 1890 5
610 625 16
660 490 24
690 447 24
949 445 18
949 478 18
970 463 18
10 2390 299
2500 10 299
185 365 128
200 378 98
165 410 126
148 425 140
296 425 70
116 439 150
1006 464 12
205 520 70
350 520 40
530 540 25
1413 549 10
1882 549 5
496 553 30
755 555 15
496 555 30
659 555 20
473 567 30
592 572 25
975 572 15
1175 572 10
1575 572 5
1390 572 10
1490 572 10
1590 572 5
1690 572 5
1890 572 5
625 610 16
490 660 24
447 690 24
445 949 18
478 949 18
463 970 18
2390 10 299
10 2500 299
